instances/A/cases/A-n07-k2.vrp
NAME : A-n07-k2
COMMENT : (teste)
TYPE : CVRP
DIMENSION : 7
EDGE_WEIGHT_TYPE : EUC_2D 
CAPACITY : 50
NODE_COORD_SECTION 
 1 82 76
 2 96 44
 3 50 5
 4 49 8
 5 13 7
 6 200 30
 7 120 60
DEMAND_SECTION 
1 0 
2 19 
3 21 
4 6 
5 19 
6 20
7 3
DEPOT_SECTION 
 1  
 -1  
EOF 
