solutions/A/A-n07-k2
2 7 6  (42)
5 3 4  (46)
Cost 489.243

